918109
86, 45, 4, 66, 7, 73, 95, 57, 47, 33, 9, 21, 20, 96, 30, 77, 18, 41, 69, 6, 75, 56, 10, 49, 55, 44, 97, 42, 35, 27, 2, 64, 3, 5, 89, 85, 8, 53, 91, 72, 68, 38, 76, 87, 48, 1, 70, 37, 74, 32, 60, 31, 62, 93, 63, 13, 80, 99, 36, 50, 88, 83, 61, 15, 16, 82, 58, 67, 46, 34, 71, 28, 11, 23, 54, 98, 65, 52, 24, 43, 59, 90, 19, 17, 12, 26, 94, 40, 29, 79, 51, 78, 25, 22, 84, 92, 39, 14, 81
